variable rand equal round(random(0,1e7,452345))

units		real
atom_style      full
boundary        f f f
timestep	1.0

# modified CLAYFF parameters from Kerisit (2011)
pair_style      lj/cut/coul/cut 45.0
neigh_modify one 10000
comm_style tiled

read_data       cub_np_re.data
balance 1.1 rcb

dump  dmp all custom 10000 swap.lammpstrj id mol type q x y z
dump_modify dmp sort id

group  fe type 1 2
variable nfe equal count(fe)
variable nsteps equal round(${nfe}*${nfe})

compute  coord fe coord/atom cutoff 2.0
dump coord  fe custom 1 cub_swp.coord id type c_coord
dump_modify  coord sort id
run  0
variable  fet atom c_coord==4
group  fet variable fet
group  feo subtract fe fet
undump  coord

set  group all mol 0
set  group fet mol 1
set  group feo mol 2

variable  fet3 atom "gmask(fet) && q == 1.575"
group  fet3 dynamic fe var fet3 every 100
variable  rfet3 equal count(fet3)/count(fet)

variable  feo3 atom "gmask(feo) && q == 1.575"
group  feo3 dynamic fe var feo3 every 100
variable  rfeo3 equal count(feo3)/count(feo)

# Electrostatic relaxation-long
fix  swp fe atom/swap 1 1 ${rand} 0.1 ke no types 1 2
thermo  1000
thermo_style custom step pe f_swp[1] f_swp[2] v_rfet3 v_rfeo3
run  ${nsteps}

unfix swp

thermo_style custom step temp pe
write_data cub_re_swp.data

# Full minimization
minimize        1.0e-6 1.0e-9 1000 10000

write_data cub_re_min.data
