variable 	q1 equal -1.050 # charge of O
variable 	q2 equal 1.050 # charge of Fe(II)
variable 	q3 equal 1.575 # charge of Fe(III)
variable 	rand equal round(random(0,1e7,452345))


units           metal
atom_style      charge
boundary        p p p


timestep        0.0005 # is a 0.5 fs timestep

# modified CLAYFF parameters from Kerisit (2011)
pair_style      lj/cut/coul/long 8.0 12.0
kspace_style	ewald 1e-6

read_data       initial_structure_before_charge_redistribution.data 

change_box	all x scale 3.0 y scale 3.0 z scale 3.0
displace_atoms	all move 50 50 50 units box

group 		Fe type 2 
group		O type 1
variable	nFe equal count(Fe)
variable	nO equal count(O)

print 		"nFe: ${nFe} -  nO: ${nO}"

variable	nFe_3 equal ((${nO}*${q1}+${nFe}*${q2})/(${q2}-${q3}))

print		"nFe_3: ${nFe_3}"

set 		group Fe type/subset 3 ${nFe_3} ${rand}

set		type 1 charge ${q1}
set		type 2 charge ${q2}
set		type 3 charge ${q3}

variable 	qtot equal charge(all)
print 		"total charge of system: ${qtot}"

write_data	nsp_26.6A.data
