variable	rand equal round(random(0,1e7,452345))

units           real
atom_style      full
boundary        f f f
timestep        0.5

pair_style      lj/cut/coul/cut 45.0
neigh_modify	one 10000
comm_style	tiled

read_data       cub_np_un.data
balance		1.1 rcb

dump		dmp all custom 10000 swap.lammpstrj id mol type q x y z
dump_modify	dmp sort id

group		fe type 1 2

fix             nvt all nvt temp 1000.0 100.0 $(100.0*dt)
fix             swp fe atom/swap 1 10 ${rand} 100000 ke no types 1 2
velocity        all create 1000.0 ${rand} rot yes mom yes dist gaussian
thermo_style    custom step temp pe f_swp[1] f_swp[2]
thermo          1000
#run		10000
run             2000000 # 1ns

unfix		swp
unfix		nvt

thermo_style	custom step temp pe
write_data	cub_un_swp.data
