variable rand equal round(random(0,1e7,452345))
variable temp index 300000 270000 243000 218700 196830 177147 159432 143488 129139 116225 104602 94141 84726 76253 68627 61764 55587 50028 45025 40522 36469 32822 29539 26585 23926 21533 19379 17441 15696 14126 12713 11441 10296 9266 8339 7505 6754 6078 5470 4923 4430 3987 3588 3229 2906 2615 2353 2117 1905 1714 1542 1387 1248 1123 1010 909 818 736 662 595 535 481 432 388 349 314 282 253 227 204 183 164 147 132 118 106 95 85 76 68 61 54 48 43 38 34 30 27 24 21 18 16 14 12 10 9 8 7 6 5 4 3 2 1 

units           real
atom_style      full
boundary        f f f
timestep	1.0

# modified CLAYFF parameters from Kerisit (2011)
pair_style      lj/cut/coul/cut 35.0
neigh_modify one 10000
comm_style tiled

read_data       cub_np_re.data
balance 1.1 rcb

dump  dmp all custom 10000 swap.lammpstrj id mol type q x y z
dump_modify dmp sort id

group  fe type 1 2
variable nfe equal count(fe)
variable nsteps equal (${nfe})*(${nfe})

compute  coord fe coord/atom cutoff 2.0
dump coord  fe custom 1 cub_swp.coord id type c_coord
dump_modify  coord sort id
run  0
variable  fet atom c_coord==4
group  fet variable fet
group  feo subtract fe fet
undump  coord

set  group all mol 0
set  group fet mol 1
set  group feo mol 2

variable  fet3 atom "gmask(fet) && q == 1.575"
group  fet3 dynamic fe var fet3 every 100
variable  rfet3 equal count(fet3)/count(fet)

variable  feo3 atom "gmask(feo) && q == 1.575"
group  feo3 dynamic fe var feo3 every 100
variable  rfeo3 equal count(feo3)/count(feo)

variable cnum equal 104  # Number of SA cycles 

label temp_loop

  variable ftemp equal v_temp

  # Electrostatic relaxation-long
  fix  swp fe atom/swap 1 1 ${rand} ${temp} ke no types 1 2
  thermo  1000
  thermo_style custom step v_ftemp v_cnum pe f_swp[1] f_swp[2] v_rfet3 v_rfeo3
  run  ${nsteps}

  variable cnum equal (${cnum}-1)

  unfix swp

next temp
jump SELF temp_loop
label break

thermo_style custom step temp pe
write_data cub_re_swp.data

# Full minimization
minimize        1.0e-6 1.0e-9 1000 10000

# Electrostatic relaxation-short
fix  swp fe atom/swap 1 1 ${rand} 0.1 ke no types 1 2
thermo  10000
thermo_style custom step temp pe f_swp[1] f_swp[2] v_rfet3 v_rfeo3
run  ${nsteps}
unfix   swp
thermo_style    custom temp step pe

# Full minimization
minimize        1.0e-6 1.0e-9 1000 10000

write_data cub_re_min.data

compute pe all pe
fix print_pe all ave/time 1 1 1 v_rfet3 v_rfeo3 c_pe file ../info_re_cub.txt off 1
run 0

write_data cub_re_min.data
