variable 	q1 equal -1.050 # charge of O
variable 	q2 equal 1.050 # charge of Fe(II)
variable 	q3 equal 1.575 # charge of Fe(III)
variable 	rand equal round(random(0,1e7,452345))


units           real
atom_style      full
boundary        p p p


timestep        0.5 # is a 0.5 fs timestep

# modified CLAYFF parameters from Kerisit (2011)
pair_style      lj/cut/coul/long 8.0 12.0
kspace_style	ewald 1e-6
bond_style	harmonic
angle_style	harmonic

read_data       initial_structure_before_charge_redistribution.data 

#change_box	all x scale 3.0 y scale 3.0 z scale 3.0
#displace_atoms	all move 75 75 75 units box

include		ff_water_fe3o4.param

group 		Fe type 4 
group		O type 3
variable	nFe equal count(Fe)
variable	nO equal count(O)

print 		"nFe: ${nFe} -  nO: ${nO}"

variable	nFe_3 equal ((${nO}*${q1}+${nFe}*${q2})/(${q2}-${q3}))

print		"nFe_3: ${nFe_3}"

set 		group Fe type/subset 5 ${nFe_3} ${rand}

set		type 3 charge ${q1}
set		type 4 charge ${q2}
set		type 5 charge ${q3}

variable 	qtot equal charge(all)
variable	com_x equal xcm(all,x)
variable	com_y equal xcm(all,y)
variable	com_z equal xcm(all,z)

print 		"total charge of system: ${qtot}"
print		"center of mass of all atoms: ${com_x} ${com_y} ${com_z}"

#region		np sphere ${com_x} ${com_y} ${com_z} 13.3 units box side in  
#region          full sphere ${com_x} ${com_y} ${com_z} 16.3 units box side in 
#region		water_box intersect 2 full np

#molecule	h2o H2O.txt

write_data	nsp_chargeRedist.data
